p edge 75 1110
e 1 3
e 1 6
e 1 7
e 1 15
e 1 17
e 1 18
e 1 19
e 1 23
e 1 26
e 1 28
e 1 32
e 1 35
e 1 38
e 1 42
e 1 45
e 1 50
e 1 53
e 1 55
e 1 56
e 1 58
e 1 63
e 1 67
e 1 69
e 1 70
e 1 73
e 1 75
e 2 3
e 2 7
e 2 8
e 2 9
e 2 12
e 2 13
e 2 16
e 2 19
e 2 20
e 2 23
e 2 26
e 2 28
e 2 38
e 2 40
e 2 41
e 2 43
e 2 48
e 2 53
e 2 55
e 2 56
e 2 58
e 2 64
e 2 65
e 2 66
e 2 67
e 2 69
e 2 72
e 3 4
e 3 8
e 3 11
e 3 17
e 3 18
e 3 19
e 3 20
e 3 22
e 3 26
e 3 29
e 3 36
e 3 40
e 3 41
e 3 43
e 3 44
e 3 45
e 3 47
e 3 49
e 3 53
e 3 54
e 3 58
e 3 60
e 3 61
e 3 63
e 3 65
e 3 66
e 3 67
e 3 70
e 3 75
e 4 9
e 4 11
e 4 13
e 4 15
e 4 16
e 4 23
e 4 28
e 4 29
e 4 32
e 4 35
e 4 37
e 4 40
e 4 42
e 4 47
e 4 50
e 4 54
e 4 57
e 4 62
e 4 65
e 4 68
e 4 69
e 4 71
e 4 73
e 5 9
e 5 10
e 5 13
e 5 16
e 5 18
e 5 21
e 5 23
e 5 25
e 5 26
e 5 27
e 5 28
e 5 34
e 5 36
e 5 40
e 5 43
e 5 44
e 5 49
e 5 50
e 5 55
e 5 56
e 5 58
e 5 61
e 5 64
e 5 65
e 5 67
e 5 68
e 5 69
e 5 70
e 5 72
e 5 73
e 6 10
e 6 15
e 6 17
e 6 20
e 6 22
e 6 24
e 6 26
e 6 27
e 6 28
e 6 30
e 6 31
e 6 34
e 6 36
e 6 43
e 6 45
e 6 49
e 6 53
e 6 56
e 6 58
e 6 59
e 6 60
e 6 61
e 6 63
e 6 65
e 6 67
e 6 71
e 6 73
e 7 9
e 7 12
e 7 13
e 7 21
e 7 22
e 7 23
e 7 24
e 7 25
e 7 26
e 7 28
e 7 29
e 7 32
e 7 33
e 7 43
e 7 44
e 7 49
e 7 53
e 7 55
e 7 56
e 7 57
e 7 58
e 7 59
e 7 61
e 7 62
e 7 63
e 7 64
e 7 69
e 7 71
e 7 73
e 8 11
e 8 13
e 8 15
e 8 20
e 8 24
e 8 26
e 8 30
e 8 39
e 8 42
e 8 45
e 8 49
e 8 50
e 8 51
e 8 52
e 8 54
e 8 61
e 8 63
e 8 64
e 8 69
e 8 72
e 8 75
e 9 17
e 9 18
e 9 20
e 9 23
e 9 24
e 9 30
e 9 32
e 9 36
e 9 37
e 9 39
e 9 41
e 9 45
e 9 46
e 9 47
e 9 48
e 9 50
e 9 51
e 9 53
e 9 54
e 9 55
e 9 56
e 9 59
e 9 61
e 9 63
e 9 69
e 9 70
e 9 71
e 9 72
e 9 73
e 10 12
e 10 18
e 10 19
e 10 20
e 10 21
e 10 26
e 10 28
e 10 31
e 10 35
e 10 38
e 10 39
e 10 45
e 10 49
e 10 52
e 10 55
e 10 62
e 10 64
e 10 67
e 10 68
e 10 75
e 11 12
e 11 14
e 11 15
e 11 16
e 11 20
e 11 21
e 11 23
e 11 25
e 11 27
e 11 29
e 11 34
e 11 35
e 11 36
e 11 37
e 11 39
e 11 44
e 11 46
e 11 57
e 11 59
e 11 62
e 11 63
e 11 67
e 11 72
e 11 74
e 12 13
e 12 19
e 12 23
e 12 24
e 12 27
e 12 29
e 12 30
e 12 31
e 12 32
e 12 33
e 12 34
e 12 35
e 12 43
e 12 44
e 12 45
e 12 46
e 12 47
e 12 48
e 12 49
e 12 51
e 12 54
e 12 55
e 12 59
e 12 68
e 12 70
e 12 72
e 13 15
e 13 17
e 13 18
e 13 20
e 13 22
e 13 24
e 13 29
e 13 30
e 13 34
e 13 35
e 13 39
e 13 41
e 13 42
e 13 43
e 13 45
e 13 46
e 13 47
e 13 49
e 13 51
e 13 53
e 13 60
e 13 61
e 13 62
e 13 68
e 13 71
e 14 19
e 14 20
e 14 23
e 14 24
e 14 26
e 14 27
e 14 29
e 14 30
e 14 36
e 14 41
e 14 42
e 14 45
e 14 46
e 14 49
e 14 50
e 14 52
e 14 54
e 14 58
e 14 59
e 14 62
e 14 63
e 14 64
e 14 65
e 14 66
e 14 67
e 14 69
e 14 71
e 14 73
e 14 74
e 15 17
e 15 18
e 15 19
e 15 21
e 15 23
e 15 30
e 15 33
e 15 37
e 15 41
e 15 43
e 15 44
e 15 46
e 15 49
e 15 51
e 15 58
e 15 61
e 15 62
e 15 65
e 15 66
e 15 73
e 15 74
e 16 17
e 16 18
e 16 19
e 16 22
e 16 23
e 16 26
e 16 27
e 16 30
e 16 32
e 16 39
e 16 40
e 16 41
e 16 42
e 16 44
e 16 46
e 16 48
e 16 49
e 16 56
e 16 57
e 16 60
e 16 61
e 16 62
e 16 64
e 16 68
e 16 70
e 16 72
e 17 25
e 17 27
e 17 29
e 17 30
e 17 32
e 17 33
e 17 34
e 17 35
e 17 36
e 17 37
e 17 38
e 17 41
e 17 43
e 17 49
e 17 56
e 17 61
e 17 63
e 17 65
e 17 67
e 17 68
e 17 69
e 17 71
e 17 72
e 18 19
e 18 26
e 18 30
e 18 34
e 18 35
e 18 38
e 18 40
e 18 44
e 18 45
e 18 46
e 18 47
e 18 48
e 18 50
e 18 52
e 18 53
e 18 63
e 18 72
e 18 73
e 18 74
e 19 20
e 19 29
e 19 30
e 19 34
e 19 39
e 19 40
e 19 43
e 19 45
e 19 46
e 19 49
e 19 51
e 19 52
e 19 54
e 19 55
e 19 56
e 19 57
e 19 59
e 19 60
e 19 69
e 19 74
e 19 75
e 20 24
e 20 25
e 20 26
e 20 30
e 20 34
e 20 36
e 20 38
e 20 45
e 20 61
e 20 62
e 20 63
e 20 67
e 20 68
e 21 23
e 21 24
e 21 26
e 21 28
e 21 29
e 21 35
e 21 36
e 21 37
e 21 40
e 21 45
e 21 46
e 21 50
e 21 52
e 21 53
e 21 55
e 21 58
e 21 60
e 21 63
e 21 68
e 21 69
e 21 75
e 22 25
e 22 26
e 22 27
e 22 28
e 22 33
e 22 34
e 22 36
e 22 37
e 22 38
e 22 40
e 22 41
e 22 48
e 22 52
e 22 55
e 22 60
e 22 62
e 22 63
e 22 64
e 22 69
e 22 72
e 22 73
e 22 74
e 22 75
e 23 24
e 23 25
e 23 28
e 23 31
e 23 33
e 23 34
e 23 35
e 23 36
e 23 40
e 23 41
e 23 46
e 23 49
e 23 51
e 23 56
e 23 57
e 23 63
e 23 64
e 23 67
e 23 68
e 23 71
e 23 73
e 23 74
e 24 26
e 24 28
e 24 30
e 24 32
e 24 33
e 24 36
e 24 38
e 24 39
e 24 44
e 24 45
e 24 46
e 24 47
e 24 48
e 24 49
e 24 50
e 24 53
e 24 58
e 24 62
e 24 63
e 24 64
e 24 68
e 24 70
e 24 72
e 24 73
e 24 75
e 25 28
e 25 29
e 25 31
e 25 32
e 25 33
e 25 34
e 25 36
e 25 37
e 25 38
e 25 40
e 25 41
e 25 42
e 25 46
e 25 48
e 25 49
e 25 53
e 25 56
e 25 60
e 25 62
e 25 63
e 25 66
e 25 67
e 25 70
e 25 71
e 25 74
e 25 75
e 26 27
e 26 28
e 26 29
e 26 32
e 26 33
e 26 34
e 26 35
e 26 39
e 26 42
e 26 44
e 26 46
e 26 47
e 26 50
e 26 52
e 26 55
e 26 59
e 26 64
e 26 65
e 26 67
e 26 69
e 26 70
e 26 71
e 26 72
e 26 73
e 26 74
e 26 75
e 27 30
e 27 31
e 27 32
e 27 34
e 27 36
e 27 38
e 27 39
e 27 41
e 27 42
e 27 43
e 27 45
e 27 46
e 27 47
e 27 48
e 27 49
e 27 50
e 27 52
e 27 54
e 27 60
e 27 63
e 27 65
e 27 66
e 27 67
e 27 70
e 27 74
e 27 75
e 28 29
e 28 31
e 28 32
e 28 33
e 28 34
e 28 35
e 28 36
e 28 37
e 28 38
e 28 42
e 28 43
e 28 44
e 28 45
e 28 47
e 28 50
e 28 52
e 28 53
e 28 54
e 28 56
e 28 58
e 28 63
e 28 65
e 28 69
e 28 72
e 28 73
e 28 74
e 28 75
e 29 33
e 29 34
e 29 38
e 29 39
e 29 40
e 29 42
e 29 43
e 29 44
e 29 46
e 29 50
e 29 51
e 29 53
e 29 55
e 29 57
e 29 62
e 29 63
e 29 64
e 29 69
e 29 70
e 29 73
e 30 32
e 30 38
e 30 41
e 30 42
e 30 43
e 30 45
e 30 50
e 30 51
e 30 52
e 30 53
e 30 55
e 30 63
e 30 68
e 30 71
e 30 72
e 30 75
e 31 34
e 31 36
e 31 37
e 31 40
e 31 41
e 31 42
e 31 43
e 31 44
e 31 47
e 31 49
e 31 50
e 31 52
e 31 53
e 31 54
e 31 55
e 31 58
e 31 59
e 31 60
e 31 62
e 31 63
e 31 64
e 31 65
e 31 66
e 31 70
e 31 71
e 31 72
e 31 73
e 31 75
e 32 34
e 32 37
e 32 39
e 32 43
e 32 48
e 32 58
e 32 60
e 32 61
e 32 65
e 32 66
e 32 67
e 32 70
e 32 72
e 32 74
e 32 75
e 33 40
e 33 41
e 33 42
e 33 46
e 33 50
e 33 51
e 33 55
e 33 62
e 33 63
e 34 36
e 34 39
e 34 41
e 34 42
e 34 43
e 34 46
e 34 47
e 34 48
e 34 49
e 34 50
e 34 54
e 34 55
e 34 56
e 34 58
e 34 64
e 34 69
e 34 71
e 34 73
e 34 75
e 35 38
e 35 40
e 35 42
e 35 43
e 35 44
e 35 53
e 35 57
e 35 59
e 35 61
e 35 66
e 35 69
e 36 37
e 36 39
e 36 41
e 36 46
e 36 53
e 36 55
e 36 57
e 36 64
e 36 65
e 36 66
e 36 70
e 36 74
e 37 51
e 37 52
e 37 55
e 37 63
e 37 65
e 37 66
e 37 75
e 38 40
e 38 43
e 38 45
e 38 47
e 38 49
e 38 53
e 38 54
e 38 59
e 38 60
e 38 61
e 38 63
e 38 68
e 38 69
e 38 70
e 39 40
e 39 42
e 39 55
e 39 56
e 39 57
e 39 58
e 39 61
e 39 63
e 39 65
e 39 66
e 39 71
e 39 75
e 40 43
e 40 44
e 40 47
e 40 48
e 40 53
e 40 58
e 40 60
e 40 61
e 40 63
e 40 65
e 40 66
e 40 67
e 40 71
e 40 72
e 40 75
e 41 44
e 41 47
e 41 48
e 41 53
e 41 55
e 41 56
e 41 62
e 41 63
e 41 68
e 41 69
e 41 70
e 41 73
e 42 43
e 42 46
e 42 49
e 42 50
e 42 52
e 42 55
e 42 56
e 42 59
e 42 61
e 42 64
e 42 69
e 42 70
e 42 71
e 42 72
e 42 74
e 42 75
e 43 44
e 43 45
e 43 46
e 43 47
e 43 50
e 43 51
e 43 52
e 43 55
e 43 57
e 43 63
e 43 65
e 43 66
e 43 68
e 43 71
e 43 73
e 43 74
e 43 75
e 44 45
e 44 50
e 44 55
e 44 56
e 44 58
e 44 59
e 44 61
e 44 67
e 44 68
e 44 69
e 44 71
e 44 73
e 44 74
e 44 75
e 45 49
e 45 53
e 45 59
e 45 62
e 45 67
e 45 68
e 45 74
e 46 47
e 46 50
e 46 53
e 46 63
e 46 68
e 46 69
e 46 71
e 46 74
e 47 49
e 47 51
e 47 58
e 47 59
e 47 60
e 47 65
e 47 66
e 47 68
e 48 52
e 48 56
e 48 57
e 48 60
e 48 64
e 48 66
e 48 67
e 48 68
e 48 71
e 48 73
e 49 50
e 49 51
e 49 52
e 49 53
e 49 54
e 49 55
e 49 56
e 49 57
e 49 67
e 49 68
e 49 69
e 49 70
e 49 72
e 49 73
e 50 53
e 50 55
e 50 56
e 50 57
e 50 58
e 50 62
e 50 65
e 50 66
e 50 69
e 50 70
e 50 71
e 51 52
e 51 54
e 51 57
e 51 60
e 51 61
e 51 71
e 51 72
e 52 60
e 52 65
e 52 67
e 52 68
e 52 71
e 52 72
e 52 73
e 52 74
e 53 55
e 53 56
e 53 57
e 53 59
e 53 64
e 53 66
e 53 67
e 53 69
e 53 72
e 53 75
e 54 55
e 54 57
e 54 58
e 54 60
e 54 61
e 54 62
e 54 63
e 54 66
e 54 68
e 54 70
e 54 71
e 54 72
e 54 74
e 55 57
e 55 60
e 55 62
e 55 64
e 55 65
e 55 68
e 55 69
e 55 70
e 55 72
e 55 74
e 56 58
e 56 60
e 56 61
e 56 64
e 56 65
e 56 66
e 56 67
e 56 71
e 56 73
e 56 74
e 57 58
e 57 60
e 57 61
e 57 62
e 57 64
e 57 67
e 57 68
e 57 69
e 57 71
e 57 75
e 58 60
e 58 62
e 58 71
e 58 72
e 58 73
e 58 75
e 59 60
e 59 61
e 59 63
e 59 64
e 59 65
e 59 69
e 59 73
e 59 75
e 60 62
e 60 65
e 60 66
e 60 67
e 60 68
e 60 69
e 60 71
e 60 72
e 61 67
e 61 68
e 61 69
e 61 70
e 61 73
e 61 74
e 61 75
e 62 63
e 62 66
e 62 67
e 62 69
e 62 70
e 62 72
e 62 73
e 63 66
e 63 67
e 64 66
e 64 68
e 64 70
e 65 66
e 65 68
e 65 74
e 65 75
e 66 69
e 66 70
e 66 72
e 66 73
e 67 69
e 67 73
e 68 69
e 68 72
e 68 73
e 69 72
e 69 75
e 70 71
e 71 73
e 71 74
e 71 75
e 72 73
e 73 74
e 74 75
